/*********************************************
 * OPL 22.1.2.0 Data
 * Author: adrien.dacostaveiga
 * Creation Date: Apr 1, 2026 at 3:36:00 PM
 *********************************************/
 
// =====================================================
// CROSS VALIDATION DATASET (AIRLAND2)
// =====================================================


// ======================
// DIMENSIONS
// ======================

n = 15;
m = 1;


// ======================
// OBJECTIF COMMUN (P1 / P2 / P3)
// ======================
// T = target times (Airland1 dataset cohérent utilisé précédemment)

T = [
  155, 250, 93, 98, 111,
  120, 121, 120, 128, 151,
  341, 313, 181, 171, 342
];


// ======================
// PENALITIES (identiques sur tous modèles)
// ======================
cMinus = [
  10,10,30,30,30,
  30,30,30,30,30,
  10,10,30,30,10
];

cPlus = [
  10,10,30,30,30,
  30,30,30,30,30,
  10,10,30,30,10
];

// ======================
// DEADLINES (Airland1 cohérent)
// ======================

A = [155,250,93,98,111,120,121,120,128,151,341,313,181,171,342];

// ======================
// TAXI TIMES (m = 1)
// ======================
// cohérent avec P3 simplifié

t = [
 [10],[10],[10],[10],[10],
 [10],[10],[10],[10],[10],
 [10],[10],[10],[10],[10]
];


// ======================
// SOLUTIONS P1 / P2 / P3
// ======================
// IMPORTANT : valeurs alignées avec tes résultats récents

xP1 = [60, 190, 45, 75, 83, 91, 107, 99, 115, 134, 266, 251, 160, 152, 276];

xP2 = [54, 115, 9, 14, 25, 32, 34, 34, 40, 59, 191, 176, 85, 77, 201];

xP3 = [64, 118, 9, 17, 25, 33, 41, 49, 79, 87, 191, 188, 103, 95, 201];


// ======================
// RUNWAY ASSIGNMENT
// ======================

runwayP1 = [1,1,1,1,1,1,1,1,1,1,1,1,1,1,1];
runwayP2 = [1,1,1,1,1,1,1,1,1,1,1,1,1,1,1];
runwayP3 = [1,1,1,1,1,1,1,1,1,1,1,1,1,1,1];